\* Maximise_the_profit *\
Maximize
Profit_to_be_maximized: 25 Toy_A + 20 Toy_B
Subject To
Total_available_minutes: 5 Toy_A + 5 Toy_B <= 540
Total_available_units: 20 Toy_A + 12 Toy_B <= 2000
Bounds
0 <= Toy_A
0 <= Toy_B
Generals
Toy_A
Toy_B
End
